
c turning on binary mode checking

c parsing input formula with 3656 variables and 22151 clauses

c finished parsing, read 82956 bytes from proof file

c detected empty clause; start verification via backward checking

c 65 of 22151 clauses in core                            

c 12 of 1849 lemmas in core using 101 resolution steps

c 0 RAT lemmas in core; 12 redundant literals in core lemmas

s VERIFIED

c verification time: 0.057 seconds
